\* Pricing_problem *\
Minimize
OBJ: 0.133333333333 M_0_0 + 0.0666666666667 M_0_1 + 0.266666666667 M_0_2
 + 0.333333333333 M_0_3 + 0.2 M_0_4 + 0.4 M_0_5 + 0.0666666666667 M_10_0
 + 0.133333333333 M_10_1 + 0.333333333333 M_10_2 + 0.4 M_10_3 + 0.2 M_10_4
 + 0.266666666667 M_10_5 + 0.0666666666667 M_11_0 + 0.133333333333 M_11_1
 + 0.4 M_11_2 + 0.266666666667 M_11_3 + 0.2 M_11_4 + 0.333333333333 M_11_5
 + 0.0666666666667 M_12_0 + 0.133333333333 M_12_1 + 0.266666666667 M_12_2
 + 0.333333333333 M_12_3 + 0.2 M_12_4 + 0.4 M_12_5 + 0.133333333333 M_13_0
 + 0.0666666666667 M_13_1 + 0.2 M_13_2 + 0.4 M_13_3 + 0.266666666667 M_13_4
 + 0.333333333333 M_13_5 + 0.0666666666667 M_14_0 + 0.2 M_14_1
 + 0.266666666667 M_14_2 + 0.4 M_14_3 + 0.133333333333 M_14_4
 + 0.333333333333 M_14_5 + 0.2 M_1_0 + 0.133333333333 M_1_1
 + 0.266666666667 M_1_2 + 0.4 M_1_3 + 0.0666666666667 M_1_4
 + 0.333333333333 M_1_5 + 0.0666666666667 M_2_0 + 0.133333333333 M_2_1
 + 0.266666666667 M_2_2 + 0.4 M_2_3 + 0.2 M_2_4 + 0.333333333333 M_2_5
 + 0.133333333333 M_3_0 + 0.0666666666667 M_3_1 + 0.266666666667 M_3_2
 + 0.4 M_3_3 + 0.2 M_3_4 + 0.333333333333 M_3_5 + 0.0666666666667 M_4_0
 + 0.2 M_4_1 + 0.266666666667 M_4_2 + 0.333333333333 M_4_3
 + 0.133333333333 M_4_4 + 0.4 M_4_5 + 0.133333333333 M_5_0 + 0.2 M_5_1
 + 0.266666666667 M_5_2 + 0.333333333333 M_5_3 + 0.0666666666667 M_5_4
 + 0.4 M_5_5 + 0.133333333333 M_6_0 + 0.0666666666667 M_6_1
 + 0.333333333333 M_6_2 + 0.4 M_6_3 + 0.2 M_6_4 + 0.266666666667 M_6_5
 + 0.133333333333 M_7_0 + 0.0666666666667 M_7_1 + 0.333333333333 M_7_2
 + 0.4 M_7_3 + 0.2 M_7_4 + 0.266666666667 M_7_5 + 0.266666666667 M_8_0
 + 0.0666666666667 M_8_1 + 0.133333333333 M_8_2 + 0.333333333333 M_8_3
 + 0.2 M_8_4 + 0.4 M_8_5 + 0.133333333333 M_9_0 + 0.0666666666667 M_9_1
 + 0.2 M_9_2 + 0.4 M_9_3 + 0.333333333333 M_9_4 + 0.266666666667 M_9_5
Subject To
CUTOFF1_0_0: - 2 M_0_0 + t_0 >= 0
CUTOFF1_0_1: - 2 M_0_1 + t_1 >= 0
CUTOFF1_0_2: - M_0_2 + t_2 >= 0
CUTOFF1_0_3: - M_0_3 + t_3 >= 0
CUTOFF1_0_4: - 2 M_0_4 + t_4 >= 0
CUTOFF1_0_5: - 2 M_0_5 + t_5 >= 0
CUTOFF1_10_0: - 2 M_10_0 + t_0 >= 0
CUTOFF1_10_1: - M_10_1 + t_1 >= 0
CUTOFF1_10_2: - 2 M_10_2 + t_2 >= 0
CUTOFF1_10_3: - M_10_3 + t_3 >= 0
CUTOFF1_10_4: - 2 M_10_4 + t_4 >= 0
CUTOFF1_10_5: - 2 M_10_5 + t_5 >= 0
CUTOFF1_11_0: - M_11_0 + t_0 >= 0
CUTOFF1_11_1: - 2 M_11_1 + t_1 >= 0
CUTOFF1_11_2: - 2 M_11_2 + t_2 >= 0
CUTOFF1_11_3: - M_11_3 + t_3 >= 0
CUTOFF1_11_4: - 2 M_11_4 + t_4 >= 0
CUTOFF1_11_5: - 2 M_11_5 + t_5 >= 0
CUTOFF1_12_0: - M_12_0 + t_0 >= 0
CUTOFF1_12_1: - 2 M_12_1 + t_1 >= 0
CUTOFF1_12_2: - 2 M_12_2 + t_2 >= 0
CUTOFF1_12_3: - M_12_3 + t_3 >= 0
CUTOFF1_12_4: - 2 M_12_4 + t_4 >= 0
CUTOFF1_12_5: - 2 M_12_5 + t_5 >= 0
CUTOFF1_13_0: - 2 M_13_0 + t_0 >= 0
CUTOFF1_13_1: - 2 M_13_1 + t_1 >= 0
CUTOFF1_13_2: - M_13_2 + t_2 >= 0
CUTOFF1_13_3: - M_13_3 + t_3 >= 0
CUTOFF1_13_4: - 2 M_13_4 + t_4 >= 0
CUTOFF1_13_5: - 2 M_13_5 + t_5 >= 0
CUTOFF1_14_0: - M_14_0 + t_0 >= 0
CUTOFF1_14_1: - 2 M_14_1 + t_1 >= 0
CUTOFF1_14_2: - 2 M_14_2 + t_2 >= 0
CUTOFF1_14_3: - M_14_3 + t_3 >= 0
CUTOFF1_14_4: - 2 M_14_4 + t_4 >= 0
CUTOFF1_14_5: - 2 M_14_5 + t_5 >= 0
CUTOFF1_1_0: - 2 M_1_0 + t_0 >= 0
CUTOFF1_1_1: - 2 M_1_1 + t_1 >= 0
CUTOFF1_1_2: - 2 M_1_2 + t_2 >= 0
CUTOFF1_1_3: - M_1_3 + t_3 >= 0
CUTOFF1_1_4: - M_1_4 + t_4 >= 0
CUTOFF1_1_5: - 2 M_1_5 + t_5 >= 0
CUTOFF1_2_0: - M_2_0 + t_0 >= 0
CUTOFF1_2_1: - 2 M_2_1 + t_1 >= 0
CUTOFF1_2_2: - 2 M_2_2 + t_2 >= 0
CUTOFF1_2_3: - M_2_3 + t_3 >= 0
CUTOFF1_2_4: - 2 M_2_4 + t_4 >= 0
CUTOFF1_2_5: - 2 M_2_5 + t_5 >= 0
CUTOFF1_3_0: - 2 M_3_0 + t_0 >= 0
CUTOFF1_3_1: - 2 M_3_1 + t_1 >= 0
CUTOFF1_3_2: - 2 M_3_2 + t_2 >= 0
CUTOFF1_3_3: - M_3_3 + t_3 >= 0
CUTOFF1_3_4: - 2 M_3_4 + t_4 >= 0
CUTOFF1_3_5: - M_3_5 + t_5 >= 0
CUTOFF1_4_0: - M_4_0 + t_0 >= 0
CUTOFF1_4_1: - 2 M_4_1 + t_1 >= 0
CUTOFF1_4_2: - 2 M_4_2 + t_2 >= 0
CUTOFF1_4_3: - M_4_3 + t_3 >= 0
CUTOFF1_4_4: - 2 M_4_4 + t_4 >= 0
CUTOFF1_4_5: - 2 M_4_5 + t_5 >= 0
CUTOFF1_5_0: - M_5_0 + t_0 >= 0
CUTOFF1_5_1: - 2 M_5_1 + t_1 >= 0
CUTOFF1_5_2: - 2 M_5_2 + t_2 >= 0
CUTOFF1_5_3: - M_5_3 + t_3 >= 0
CUTOFF1_5_4: - 2 M_5_4 + t_4 >= 0
CUTOFF1_5_5: - 2 M_5_5 + t_5 >= 0
CUTOFF1_6_0: - 2 M_6_0 + t_0 >= 0
CUTOFF1_6_1: - M_6_1 + t_1 >= 0
CUTOFF1_6_2: - 2 M_6_2 + t_2 >= 0
CUTOFF1_6_3: - M_6_3 + t_3 >= 0
CUTOFF1_6_4: - 2 M_6_4 + t_4 >= 0
CUTOFF1_6_5: - 2 M_6_5 + t_5 >= 0
CUTOFF1_7_0: - 2 M_7_0 + t_0 >= 0
CUTOFF1_7_1: - 2 M_7_1 + t_1 >= 0
CUTOFF1_7_2: - 2 M_7_2 + t_2 >= 0
CUTOFF1_7_3: - M_7_3 + t_3 >= 0
CUTOFF1_7_4: - 2 M_7_4 + t_4 >= 0
CUTOFF1_7_5: - M_7_5 + t_5 >= 0
CUTOFF1_8_0: - 2 M_8_0 + t_0 >= 0
CUTOFF1_8_1: - 2 M_8_1 + t_1 >= 0
CUTOFF1_8_2: - M_8_2 + t_2 >= 0
CUTOFF1_8_3: - M_8_3 + t_3 >= 0
CUTOFF1_8_4: - 2 M_8_4 + t_4 >= 0
CUTOFF1_8_5: - 2 M_8_5 + t_5 >= 0
CUTOFF1_9_0: - 2 M_9_0 + t_0 >= 0
CUTOFF1_9_1: - 2 M_9_1 + t_1 >= 0
CUTOFF1_9_2: - 2 M_9_2 + t_2 >= 0
CUTOFF1_9_3: - M_9_3 + t_3 >= 0
CUTOFF1_9_4: - 2 M_9_4 + t_4 >= 0
CUTOFF1_9_5: - M_9_5 + t_5 >= 0
CUTOFF2_0_0: - 3 M_0_0 - 3 M_0_1 + t_0 <= 2
CUTOFF2_0_1: - 3 M_0_1 + t_1 <= 2
CUTOFF2_0_2: - 3 M_0_0 - 3 M_0_1 - 3 M_0_2 - 3 M_0_4 + t_2 <= 1
CUTOFF2_0_3: - 2 M_0_0 - 2 M_0_1 - 2 M_0_2 - 2 M_0_3 - 2 M_0_4 + t_3 <= 1
CUTOFF2_0_4: - 3 M_0_0 - 3 M_0_1 - 3 M_0_4 + t_4 <= 2
CUTOFF2_0_5: - 3 M_0_0 - 3 M_0_1 - 3 M_0_2 - 3 M_0_3 - 3 M_0_4 - 3 M_0_5 + t_5
 <= 2
CUTOFF2_10_0: - 3 M_10_0 + t_0 <= 2
CUTOFF2_10_1: - 3 M_10_0 - 3 M_10_1 + t_1 <= 1
CUTOFF2_10_2: - 3 M_10_0 - 3 M_10_1 - 3 M_10_2 - 3 M_10_4 - 3 M_10_5 + t_2
 <= 2
CUTOFF2_10_3: - 2 M_10_0 - 2 M_10_1 - 2 M_10_2 - 2 M_10_3 - 2 M_10_4
 - 2 M_10_5 + t_3 <= 1
CUTOFF2_10_4: - 3 M_10_0 - 3 M_10_1 - 3 M_10_4 + t_4 <= 2
CUTOFF2_10_5: - 3 M_10_0 - 3 M_10_1 - 3 M_10_4 - 3 M_10_5 + t_5 <= 2
CUTOFF2_11_0: - 3 M_11_0 + t_0 <= 1
CUTOFF2_11_1: - 3 M_11_0 - 3 M_11_1 + t_1 <= 2
CUTOFF2_11_2: - 3 M_11_0 - 3 M_11_1 - 3 M_11_2 - 3 M_11_3 - 3 M_11_4
 - 3 M_11_5 + t_2 <= 2
CUTOFF2_11_3: - 2 M_11_0 - 2 M_11_1 - 2 M_11_3 - 2 M_11_4 + t_3 <= 1
CUTOFF2_11_4: - 3 M_11_0 - 3 M_11_1 - 3 M_11_4 + t_4 <= 2
CUTOFF2_11_5: - 3 M_11_0 - 3 M_11_1 - 3 M_11_3 - 3 M_11_4 - 3 M_11_5 + t_5
 <= 2
CUTOFF2_12_0: - 3 M_12_0 + t_0 <= 1
CUTOFF2_12_1: - 3 M_12_0 - 3 M_12_1 + t_1 <= 2
CUTOFF2_12_2: - 3 M_12_0 - 3 M_12_1 - 3 M_12_2 - 3 M_12_4 + t_2 <= 2
CUTOFF2_12_3: - 2 M_12_0 - 2 M_12_1 - 2 M_12_2 - 2 M_12_3 - 2 M_12_4 + t_3
 <= 1
CUTOFF2_12_4: - 3 M_12_0 - 3 M_12_1 - 3 M_12_4 + t_4 <= 2
CUTOFF2_12_5: - 3 M_12_0 - 3 M_12_1 - 3 M_12_2 - 3 M_12_3 - 3 M_12_4
 - 3 M_12_5 + t_5 <= 2
CUTOFF2_13_0: - 3 M_13_0 - 3 M_13_1 + t_0 <= 2
CUTOFF2_13_1: - 3 M_13_1 + t_1 <= 2
CUTOFF2_13_2: - 3 M_13_0 - 3 M_13_1 - 3 M_13_2 + t_2 <= 1
CUTOFF2_13_3: - 2 M_13_0 - 2 M_13_1 - 2 M_13_2 - 2 M_13_3 - 2 M_13_4
 - 2 M_13_5 + t_3 <= 1
CUTOFF2_13_4: - 3 M_13_0 - 3 M_13_1 - 3 M_13_2 - 3 M_13_4 + t_4 <= 2
CUTOFF2_13_5: - 3 M_13_0 - 3 M_13_1 - 3 M_13_2 - 3 M_13_4 - 3 M_13_5 + t_5
 <= 2
CUTOFF2_14_0: - 3 M_14_0 + t_0 <= 1
CUTOFF2_14_1: - 3 M_14_0 - 3 M_14_1 - 3 M_14_4 + t_1 <= 2
CUTOFF2_14_2: - 3 M_14_0 - 3 M_14_1 - 3 M_14_2 - 3 M_14_4 + t_2 <= 2
CUTOFF2_14_3: - 2 M_14_0 - 2 M_14_1 - 2 M_14_2 - 2 M_14_3 - 2 M_14_4
 - 2 M_14_5 + t_3 <= 1
CUTOFF2_14_4: - 3 M_14_0 - 3 M_14_4 + t_4 <= 2
CUTOFF2_14_5: - 3 M_14_0 - 3 M_14_1 - 3 M_14_2 - 3 M_14_4 - 3 M_14_5 + t_5
 <= 2
CUTOFF2_1_0: - 3 M_1_0 - 3 M_1_1 - 3 M_1_4 + t_0 <= 2
CUTOFF2_1_1: - 3 M_1_1 - 3 M_1_4 + t_1 <= 2
CUTOFF2_1_2: - 3 M_1_0 - 3 M_1_1 - 3 M_1_2 - 3 M_1_4 + t_2 <= 2
CUTOFF2_1_3: - 2 M_1_0 - 2 M_1_1 - 2 M_1_2 - 2 M_1_3 - 2 M_1_4 - 2 M_1_5 + t_3
 <= 1
CUTOFF2_1_4: - 3 M_1_4 + t_4 <= 1
CUTOFF2_1_5: - 3 M_1_0 - 3 M_1_1 - 3 M_1_2 - 3 M_1_4 - 3 M_1_5 + t_5 <= 2
CUTOFF2_2_0: - 3 M_2_0 + t_0 <= 1
CUTOFF2_2_1: - 3 M_2_0 - 3 M_2_1 + t_1 <= 2
CUTOFF2_2_2: - 3 M_2_0 - 3 M_2_1 - 3 M_2_2 - 3 M_2_4 + t_2 <= 2
CUTOFF2_2_3: - 2 M_2_0 - 2 M_2_1 - 2 M_2_2 - 2 M_2_3 - 2 M_2_4 - 2 M_2_5 + t_3
 <= 1
CUTOFF2_2_4: - 3 M_2_0 - 3 M_2_1 - 3 M_2_4 + t_4 <= 2
CUTOFF2_2_5: - 3 M_2_0 - 3 M_2_1 - 3 M_2_2 - 3 M_2_4 - 3 M_2_5 + t_5 <= 2
CUTOFF2_3_0: - 3 M_3_0 - 3 M_3_1 + t_0 <= 2
CUTOFF2_3_1: - 3 M_3_1 + t_1 <= 2
CUTOFF2_3_2: - 3 M_3_0 - 3 M_3_1 - 3 M_3_2 - 3 M_3_4 + t_2 <= 2
CUTOFF2_3_3: - 2 M_3_0 - 2 M_3_1 - 2 M_3_2 - 2 M_3_3 - 2 M_3_4 - 2 M_3_5 + t_3
 <= 1
CUTOFF2_3_4: - 3 M_3_0 - 3 M_3_1 - 3 M_3_4 + t_4 <= 2
CUTOFF2_3_5: - 3 M_3_0 - 3 M_3_1 - 3 M_3_2 - 3 M_3_4 - 3 M_3_5 + t_5 <= 1
CUTOFF2_4_0: - 3 M_4_0 + t_0 <= 1
CUTOFF2_4_1: - 3 M_4_0 - 3 M_4_1 - 3 M_4_4 + t_1 <= 2
CUTOFF2_4_2: - 3 M_4_0 - 3 M_4_1 - 3 M_4_2 - 3 M_4_4 + t_2 <= 2
CUTOFF2_4_3: - 2 M_4_0 - 2 M_4_1 - 2 M_4_2 - 2 M_4_3 - 2 M_4_4 + t_3 <= 1
CUTOFF2_4_4: - 3 M_4_0 - 3 M_4_4 + t_4 <= 2
CUTOFF2_4_5: - 3 M_4_0 - 3 M_4_1 - 3 M_4_2 - 3 M_4_3 - 3 M_4_4 - 3 M_4_5 + t_5
 <= 2
CUTOFF2_5_0: - 3 M_5_0 - 3 M_5_4 + t_0 <= 1
CUTOFF2_5_1: - 3 M_5_0 - 3 M_5_1 - 3 M_5_4 + t_1 <= 2
CUTOFF2_5_2: - 3 M_5_0 - 3 M_5_1 - 3 M_5_2 - 3 M_5_4 + t_2 <= 2
CUTOFF2_5_3: - 2 M_5_0 - 2 M_5_1 - 2 M_5_2 - 2 M_5_3 - 2 M_5_4 + t_3 <= 1
CUTOFF2_5_4: - 3 M_5_4 + t_4 <= 2
CUTOFF2_5_5: - 3 M_5_0 - 3 M_5_1 - 3 M_5_2 - 3 M_5_3 - 3 M_5_4 - 3 M_5_5 + t_5
 <= 2
CUTOFF2_6_0: - 3 M_6_0 - 3 M_6_1 + t_0 <= 2
CUTOFF2_6_1: - 3 M_6_1 + t_1 <= 1
CUTOFF2_6_2: - 3 M_6_0 - 3 M_6_1 - 3 M_6_2 - 3 M_6_4 - 3 M_6_5 + t_2 <= 2
CUTOFF2_6_3: - 2 M_6_0 - 2 M_6_1 - 2 M_6_2 - 2 M_6_3 - 2 M_6_4 - 2 M_6_5 + t_3
 <= 1
CUTOFF2_6_4: - 3 M_6_0 - 3 M_6_1 - 3 M_6_4 + t_4 <= 2
CUTOFF2_6_5: - 3 M_6_0 - 3 M_6_1 - 3 M_6_4 - 3 M_6_5 + t_5 <= 2
CUTOFF2_7_0: - 3 M_7_0 - 3 M_7_1 + t_0 <= 2
CUTOFF2_7_1: - 3 M_7_1 + t_1 <= 2
CUTOFF2_7_2: - 3 M_7_0 - 3 M_7_1 - 3 M_7_2 - 3 M_7_4 - 3 M_7_5 + t_2 <= 2
CUTOFF2_7_3: - 2 M_7_0 - 2 M_7_1 - 2 M_7_2 - 2 M_7_3 - 2 M_7_4 - 2 M_7_5 + t_3
 <= 1
CUTOFF2_7_4: - 3 M_7_0 - 3 M_7_1 - 3 M_7_4 + t_4 <= 2
CUTOFF2_7_5: - 3 M_7_0 - 3 M_7_1 - 3 M_7_4 - 3 M_7_5 + t_5 <= 1
CUTOFF2_8_0: - 3 M_8_0 - 3 M_8_1 - 3 M_8_2 - 3 M_8_4 + t_0 <= 2
CUTOFF2_8_1: - 3 M_8_1 + t_1 <= 2
CUTOFF2_8_2: - 3 M_8_1 - 3 M_8_2 + t_2 <= 1
CUTOFF2_8_3: - 2 M_8_0 - 2 M_8_1 - 2 M_8_2 - 2 M_8_3 - 2 M_8_4 + t_3 <= 1
CUTOFF2_8_4: - 3 M_8_1 - 3 M_8_2 - 3 M_8_4 + t_4 <= 2
CUTOFF2_8_5: - 3 M_8_0 - 3 M_8_1 - 3 M_8_2 - 3 M_8_3 - 3 M_8_4 - 3 M_8_5 + t_5
 <= 2
CUTOFF2_9_0: - 3 M_9_0 - 3 M_9_1 + t_0 <= 2
CUTOFF2_9_1: - 3 M_9_1 + t_1 <= 2
CUTOFF2_9_2: - 3 M_9_0 - 3 M_9_1 - 3 M_9_2 + t_2 <= 2
CUTOFF2_9_3: - 2 M_9_0 - 2 M_9_1 - 2 M_9_2 - 2 M_9_3 - 2 M_9_4 - 2 M_9_5 + t_3
 <= 1
CUTOFF2_9_4: - 3 M_9_0 - 3 M_9_1 - 3 M_9_2 - 3 M_9_4 - 3 M_9_5 + t_4 <= 2
CUTOFF2_9_5: - 3 M_9_0 - 3 M_9_1 - 3 M_9_2 - 3 M_9_5 + t_5 <= 1
CUTOFF3_0: M_0_0 + M_10_0 + M_11_0 + M_12_0 + M_13_0 + M_14_0 + M_1_0 + M_2_0
 + M_3_0 + M_4_0 + M_5_0 + M_6_0 + M_7_0 + M_8_0 + M_9_0 - 3 f_0 >= 0
CUTOFF3_1: M_0_1 + M_10_1 + M_11_1 + M_12_1 + M_13_1 + M_14_1 + M_1_1 + M_2_1
 + M_3_1 + M_4_1 + M_5_1 + M_6_1 + M_7_1 + M_8_1 + M_9_1 - 3 f_1 >= 0
CUTOFF3_2: M_0_2 + M_10_2 + M_11_2 + M_12_2 + M_13_2 + M_14_2 + M_1_2 + M_2_2
 + M_3_2 + M_4_2 + M_5_2 + M_6_2 + M_7_2 + M_8_2 + M_9_2 - 3 f_2 >= 0
CUTOFF3_3: M_0_3 + M_10_3 + M_11_3 + M_12_3 + M_13_3 + M_14_3 + M_1_3 + M_2_3
 + M_3_3 + M_4_3 + M_5_3 + M_6_3 + M_7_3 + M_8_3 + M_9_3 - 3 f_3 >= 0
CUTOFF3_4: M_0_4 + M_10_4 + M_11_4 + M_12_4 + M_13_4 + M_14_4 + M_1_4 + M_2_4
 + M_3_4 + M_4_4 + M_5_4 + M_6_4 + M_7_4 + M_8_4 + M_9_4 - 3 f_4 >= 0
CUTOFF3_5: M_0_5 + M_10_5 + M_11_5 + M_12_5 + M_13_5 + M_14_5 + M_1_5 + M_2_5
 + M_3_5 + M_4_5 + M_5_5 + M_6_5 + M_7_5 + M_8_5 + M_9_5 - 3 f_5 >= 0
CUTOFF4_0: 3 f_0 + t_0 >= 3
CUTOFF4_1: 3 f_1 + t_1 >= 3
CUTOFF4_2: 3 f_2 + t_2 >= 3
CUTOFF4_3: 2 f_3 + t_3 >= 2
CUTOFF4_4: 3 f_4 + t_4 >= 3
CUTOFF4_5: 3 f_5 + t_5 >= 3
EXCL_M_1: M_0_2 + M_10_1 + M_11_0 + M_12_3 + M_13_2 + M_14_5 + M_1_4 + M_2_0
 + M_3_4 + M_4_3 + M_5_0 + M_6_1 + M_7_4 + M_8_1 + M_9_2 <= 14
EXCL_M_10: M_0_2 + M_10_1 + M_11_0 + M_12_1 + M_13_2 + M_14_4 + M_1_4 + M_2_4
 + M_3_5 + M_4_0 + M_5_0 + M_6_1 + M_7_5 + M_8_2 + M_9_5 <= 14
EXCL_M_11: M_0_1 + M_10_1 + M_11_3 + M_12_0 + M_13_2 + M_14_0 + M_1_4 + M_2_0
 + M_3_2 + M_4_4 + M_5_4 + M_6_1 + M_7_5 + M_8_2 + M_9_5 <= 14
EXCL_M_12: M_0_4 + M_10_1 + M_11_3 + M_12_0 + M_13_2 + M_14_2 + M_1_4 + M_2_0
 + M_3_1 + M_4_0 + M_5_4 + M_6_1 + M_7_5 + M_8_2 + M_9_5 <= 14
EXCL_M_13: M_0_4 + M_10_1 + M_11_0 + M_12_0 + M_13_2 + M_14_5 + M_1_4 + M_2_2
 + M_3_1 + M_4_0 + M_5_4 + M_6_1 + M_7_5 + M_8_2 + M_9_5 <= 14
EXCL_M_14: M_0_1 + M_10_1 + M_11_0 + M_12_0 + M_13_2 + M_14_0 + M_1_4 + M_2_4
 + M_3_5 + M_4_4 + M_5_2 + M_6_1 + M_7_5 + M_8_2 + M_9_5 <= 14
EXCL_M_15: M_0_4 + M_10_1 + M_11_0 + M_12_3 + M_13_2 + M_14_0 + M_1_4 + M_2_0
 + M_3_1 + M_4_4 + M_5_3 + M_6_1 + M_7_5 + M_8_2 + M_9_2 <= 14
EXCL_M_16: M_0_1 + M_10_1 + M_11_3 + M_12_0 + M_13_2 + M_14_0 + M_1_4 + M_2_0
 + M_3_2 + M_4_4 + M_5_3 + M_6_1 + M_7_4 + M_8_2 + M_9_5 <= 14
EXCL_M_17: M_0_2 + M_10_1 + M_11_0 + M_12_4 + M_13_2 + M_14_5 + M_1_4 + M_2_0
 + M_3_1 + M_4_4 + M_5_0 + M_6_1 + M_7_5 + M_8_2 + M_9_5 <= 14
EXCL_M_18: M_0_4 + M_10_1 + M_11_0 + M_12_0 + M_13_2 + M_14_0 + M_1_4 + M_2_1
 + M_3_5 + M_4_4 + M_5_2 + M_6_1 + M_7_5 + M_8_2 + M_9_5 <= 14
EXCL_M_19: M_0_4 + M_10_1 + M_11_0 + M_12_0 + M_13_2 + M_14_2 + M_1_4 + M_2_2
 + M_3_5 + M_4_0 + M_5_4 + M_6_1 + M_7_5 + M_8_1 + M_9_5 <= 14
EXCL_M_2: M_0_2 + M_10_1 + M_11_0 + M_12_4 + M_13_2 + M_14_5 + M_1_4 + M_2_5
 + M_3_5 + M_4_0 + M_5_0 + M_6_1 + M_7_4 + M_8_1 + M_9_2 <= 14
EXCL_M_20: M_0_4 + M_10_1 + M_11_0 + M_12_1 + M_13_2 + M_14_2 + M_1_4 + M_2_0
 + M_3_5 + M_4_4 + M_5_0 + M_6_1 + M_7_5 + M_8_2 + M_9_5 <= 14
EXCL_M_21: M_0_4 + M_10_1 + M_11_0 + M_12_3 + M_13_2 + M_14_5 + M_1_4 + M_2_4
 + M_3_5 + M_4_0 + M_5_0 + M_6_1 + M_7_1 + M_8_2 + M_9_2 <= 14
EXCL_M_22: M_0_4 + M_10_1 + M_11_0 + M_12_4 + M_13_2 + M_14_5 + M_1_4 + M_2_5
 + M_3_5 + M_4_0 + M_5_0 + M_6_1 + M_7_1 + M_8_2 + M_9_2 <= 14
EXCL_M_23: M_0_4 + M_10_1 + M_11_0 + M_12_0 + M_13_2 + M_14_5 + M_1_4 + M_2_4
 + M_3_5 + M_4_0 + M_5_3 + M_6_1 + M_7_1 + M_8_2 + M_9_2 <= 14
EXCL_M_24: M_0_4 + M_10_1 + M_11_0 + M_12_3 + M_13_2 + M_14_0 + M_1_4 + M_2_4
 + M_3_5 + M_4_0 + M_5_3 + M_6_1 + M_7_1 + M_8_2 + M_9_2 <= 14
EXCL_M_25: M_0_4 + M_10_1 + M_11_0 + M_12_3 + M_13_2 + M_14_5 + M_1_4 + M_2_0
 + M_3_4 + M_4_0 + M_5_3 + M_6_1 + M_7_1 + M_8_2 + M_9_2 <= 14
EXCL_M_26: M_0_4 + M_10_1 + M_11_0 + M_12_0 + M_13_2 + M_14_5 + M_1_4 + M_2_5
 + M_3_4 + M_4_3 + M_5_0 + M_6_1 + M_7_1 + M_8_2 + M_9_2 <= 14
EXCL_M_27: M_0_4 + M_10_1 + M_11_3 + M_12_0 + M_13_2 + M_14_0 + M_1_4 + M_2_5
 + M_3_4 + M_4_0 + M_5_3 + M_6_1 + M_7_1 + M_8_2 + M_9_2 <= 14
EXCL_M_28: M_0_2 + M_10_1 + M_11_0 + M_12_3 + M_13_2 + M_14_5 + M_1_4 + M_2_0
 + M_3_4 + M_4_0 + M_5_4 + M_6_1 + M_7_1 + M_8_2 + M_9_5 <= 14
EXCL_M_29: M_0_4 + M_10_1 + M_11_0 + M_12_0 + M_13_2 + M_14_5 + M_1_4 + M_2_2
 + M_3_5 + M_4_4 + M_5_0 + M_6_1 + M_7_1 + M_8_2 + M_9_5 <= 14
EXCL_M_3: M_0_4 + M_10_1 + M_11_0 + M_12_3 + M_13_2 + M_14_2 + M_1_4 + M_2_2
 + M_3_5 + M_4_0 + M_5_0 + M_6_1 + M_7_4 + M_8_1 + M_9_5 <= 14
EXCL_M_30: M_0_4 + M_10_1 + M_11_3 + M_12_0 + M_13_2 + M_14_0 + M_1_4 + M_2_4
 + M_3_5 + M_4_0 + M_5_2 + M_6_1 + M_7_1 + M_8_2 + M_9_5 <= 14
EXCL_M_31: M_0_2 + M_10_1 + M_11_0 + M_12_0 + M_13_2 + M_14_4 + M_1_4 + M_2_0
 + M_3_5 + M_4_3 + M_5_4 + M_6_1 + M_7_1 + M_8_2 + M_9_5 <= 14
EXCL_M_32: M_0_4 + M_10_1 + M_11_3 + M_12_0 + M_13_2 + M_14_0 + M_1_4 + M_2_0
 + M_3_5 + M_4_3 + M_5_4 + M_6_1 + M_7_1 + M_8_2 + M_9_2 <= 14
EXCL_M_33: M_0_2 + M_10_1 + M_11_3 + M_12_0 + M_13_2 + M_14_0 + M_1_4 + M_2_5
 + M_3_4 + M_4_0 + M_5_4 + M_6_1 + M_7_1 + M_8_2 + M_9_5 <= 14
EXCL_M_34: M_0_2 + M_10_1 + M_11_4 + M_12_0 + M_13_2 + M_14_0 + M_1_4 + M_2_0
 + M_3_5 + M_4_3 + M_5_4 + M_6_1 + M_7_1 + M_8_2 + M_9_5 <= 14
EXCL_M_35: M_0_2 + M_10_1 + M_11_0 + M_12_0 + M_13_2 + M_14_0 + M_1_4 + M_2_4
 + M_3_5 + M_4_4 + M_5_3 + M_6_1 + M_7_1 + M_8_2 + M_9_5 <= 14
EXCL_M_36: M_0_4 + M_10_1 + M_11_3 + M_12_0 + M_13_2 + M_14_0 + M_1_4 + M_2_0
 + M_3_4 + M_4_3 + M_5_3 + M_6_1 + M_7_1 + M_8_2 + M_9_2 <= 14
EXCL_M_37: M_0_2 + M_10_1 + M_11_3 + M_12_0 + M_13_2 + M_14_0 + M_1_4 + M_2_4
 + M_3_4 + M_4_0 + M_5_3 + M_6_1 + M_7_1 + M_8_2 + M_9_5 <= 14
EXCL_M_38: M_0_4 + M_10_1 + M_11_3 + M_12_3 + M_13_2 + M_14_0 + M_1_4 + M_2_0
 + M_3_4 + M_4_3 + M_5_0 + M_6_1 + M_7_1 + M_8_2 + M_9_2 <= 14
EXCL_M_39: M_0_2 + M_10_1 + M_11_0 + M_12_3 + M_13_2 + M_14_4 + M_1_4 + M_2_4
 + M_3_5 + M_4_0 + M_5_0 + M_6_1 + M_7_1 + M_8_2 + M_9_5 <= 14
EXCL_M_4: M_0_4 + M_10_1 + M_11_0 + M_12_2 + M_13_2 + M_14_0 + M_1_4 + M_2_0
 + M_3_5 + M_4_2 + M_5_3 + M_6_1 + M_7_4 + M_8_1 + M_9_5 <= 14
EXCL_M_40: M_0_2 + M_10_1 + M_11_4 + M_12_0 + M_13_2 + M_14_0 + M_1_4 + M_2_4
 + M_3_5 + M_4_0 + M_5_3 + M_6_1 + M_7_1 + M_8_2 + M_9_5 <= 14
EXCL_M_41: M_0_2 + M_10_1 + M_11_0 + M_12_3 + M_13_1 + M_14_0 + M_1_4 + M_2_5
 + M_3_5 + M_4_0 + M_5_4 + M_6_1 + M_7_4 + M_8_2 + M_9_2 <= 14
EXCL_M_42: M_0_2 + M_10_1 + M_11_0 + M_12_3 + M_13_1 + M_14_5 + M_1_4 + M_2_0
 + M_3_5 + M_4_0 + M_5_4 + M_6_1 + M_7_4 + M_8_2 + M_9_2 <= 14
EXCL_M_43: M_0_2 + M_10_1 + M_11_0 + M_12_0 + M_13_1 + M_14_5 + M_1_4 + M_2_5
 + M_3_5 + M_4_0 + M_5_4 + M_6_1 + M_7_4 + M_8_2 + M_9_2 <= 14
EXCL_M_44: M_0_2 + M_10_1 + M_11_0 + M_12_0 + M_13_1 + M_14_5 + M_1_4 + M_2_5
 + M_3_5 + M_4_0 + M_5_4 + M_6_1 + M_7_4 + M_8_2 + M_9_2 <= 14
EXCL_M_45: M_0_2 + M_10_1 + M_11_0 + 1 M_12_3 + M_13_1 + M_14_0 + M_1_4
 + M_2_0 + M_3_5 + M_4_3 + M_5_4 + M_6_1 + M_7_4 + M_8_2 + M_9_2 <= 14
EXCL_M_46: M_0_4 + M_10_1 + M_11_0 + M_12_0 + M_13_1 + M_14_2 + M_1_4 + M_2_5
 + M_3_5 + M_4_0 + M_5_4 + M_6_1 + M_7_5 + M_8_2 + M_9_2 <= 14
EXCL_M_47: M_0_2 + M_10_1 + M_11_0 + M_12_0 + M_13_1 + M_14_4 + M_1_4 + M_2_5
 + M_3_5 + M_4_0 + M_5_4 + M_6_1 + M_7_5 + M_8_2 + M_9_2 <= 14
EXCL_M_48: M_0_2 + M_10_1 + M_11_0 + M_12_3 + M_13_1 + M_14_0 + M_1_4 + M_2_2
 + M_3_4 + M_4_0 + M_5_4 + M_6_1 + M_7_5 + M_8_2 + M_9_5 <= 14
EXCL_M_49: M_0_2 + M_10_1 + M_11_0 + M_12_0 + M_13_1 + M_14_2 + M_1_4 + M_2_4
 + M_3_5 + M_4_0 + M_5_4 + M_6_1 + M_7_5 + M_8_2 + M_9_5 <= 14
EXCL_M_5: M_0_2 + M_10_1 + M_11_0 + M_12_3 + M_13_2 + M_14_0 + M_1_4 + M_2_0
 + M_3_4 + M_4_3 + M_5_1 + M_6_1 + M_7_4 + M_8_2 + M_9_5 <= 14
EXCL_M_50: M_0_4 + M_10_1 + M_11_0 + M_12_0 + M_13_1 + M_14_0 + M_1_4 + M_2_2
 + M_3_5 + M_4_2 + M_5_4 + M_6_1 + M_7_5 + M_8_2 + M_9_5 <= 14
EXCL_M_51: M_0_1 + M_10_1 + M_11_3 + M_12_0 + M_13_2 + M_14_4 + M_1_4 + M_2_0
 + M_3_5 + M_4_0 + M_5_4 + M_6_1 + M_7_5 + M_8_2 + M_9_2 <= 14
EXCL_M_52: M_0_1 + M_10_1 + M_11_3 + M_12_0 + M_13_2 + M_14_4 + M_1_4 + M_2_0
 + M_3_2 + M_4_0 + M_5_4 + M_6_1 + M_7_5 + M_8_2 + M_9_5 <= 14
EXCL_M_53: M_0_1 + M_10_1 + M_11_3 + M_12_0 + M_13_2 + M_14_0 + M_1_4 + M_2_0
 + M_3_5 + M_4_4 + M_5_4 + M_6_1 + M_7_5 + M_8_2 + M_9_2 <= 14
EXCL_M_54: M_0_2 + M_10_1 + M_11_3 + M_12_0 + M_13_2 + M_14_0 + M_1_4 + M_2_0
 + M_3_5 + M_4_4 + M_5_4 + M_6_1 + M_7_1 + M_8_2 + M_9_5 <= 14
EXCL_M_55: M_0_2 + M_10_1 + M_11_0 + M_12_0 + M_13_2 + M_14_4 + M_1_4 + M_2_0
 + M_3_1 + M_4_3 + M_5_4 + M_6_1 + M_7_5 + M_8_2 + M_9_5 <= 14
EXCL_M_56: M_0_1 + M_10_1 + M_11_3 + M_12_0 + M_13_2 + M_14_0 + M_1_4 + M_2_5
 + M_3_4 + M_4_0 + M_5_4 + M_6_1 + M_7_5 + M_8_2 + M_9_2 <= 14
EXCL_M_57: M_0_1 + M_10_1 + M_11_3 + M_12_0 + M_13_2 + M_14_0 + M_1_4 + M_2_0
 + M_3_4 + M_4_3 + M_5_4 + M_6_1 + M_7_5 + M_8_2 + M_9_2 <= 14
EXCL_M_58: M_0_2 + M_10_1 + M_11_3 + M_12_0 + M_13_1 + M_14_0 + M_1_4 + M_2_5
 + M_3_4 + M_4_0 + M_5_4 + M_6_1 + M_7_5 + M_8_2 + M_9_2 <= 14
EXCL_M_59: M_0_1 + M_10_1 + M_11_0 + M_12_3 + M_13_2 + M_14_0 + M_1_4 + M_2_0
 + M_3_4 + M_4_3 + M_5_4 + M_6_1 + M_7_5 + M_8_2 + M_9_2 <= 14
EXCL_M_6: M_0_2 + M_10_1 + M_11_4 + M_12_0 + M_13_2 + M_14_5 + M_1_4 + M_2_4
 + M_3_5 + M_4_0 + M_5_0 + M_6_1 + M_7_5 + M_8_2 + M_9_1 <= 14
EXCL_M_60: M_0_2 + M_10_1 + M_11_1 + M_12_0 + M_13_2 + M_14_0 + M_1_4 + M_2_0
 + M_3_5 + M_4_4 + M_5_4 + M_6_1 + M_7_5 + M_8_2 + M_9_5 <= 14
EXCL_M_61: M_0_4 + M_10_1 + M_11_0 + M_12_0 + M_13_2 + M_14_5 + M_1_4 + M_2_5
 + M_3_2 + M_4_0 + M_5_3 + M_6_1 + M_7_4 + M_8_2 + M_9_1 <= 14
EXCL_M_62: M_0_4 + M_10_1 + M_11_0 + M_12_3 + M_13_2 + M_14_5 + M_1_4 + M_2_0
 + M_3_2 + M_4_0 + M_5_3 + M_6_1 + M_7_4 + M_8_2 + M_9_1 <= 14
EXCL_M_63: M_0_4 + M_10_1 + M_11_0 + M_12_0 + M_13_2 + M_14_0 + M_1_4 + M_2_5
 + M_3_2 + M_4_3 + M_5_3 + M_6_1 + M_7_4 + M_8_2 + M_9_1 <= 14
EXCL_M_64: M_0_4 + M_10_1 + M_11_0 + M_12_3 + M_13_2 + M_14_0 + M_1_4 + M_2_5
 + M_3_2 + M_4_0 + M_5_3 + M_6_1 + M_7_4 + M_8_2 + M_9_1 <= 14
EXCL_M_65: M_0_4 + M_10_1 + M_11_0 + M_12_2 + M_13_2 + M_14_0 + M_1_4 + M_2_0
 + M_3_5 + M_4_3 + M_5_3 + M_6_1 + M_7_4 + M_8_2 + M_9_1 <= 14
EXCL_M_66: M_0_4 + M_10_1 + M_11_0 + M_12_3 + M_13_2 + M_14_0 + M_1_4 + M_2_0
 + M_3_5 + M_4_3 + M_5_2 + M_6_1 + M_7_4 + M_8_2 + M_9_1 <= 14
EXCL_M_67: M_0_4 + M_10_1 + M_11_3 + M_12_0 + M_13_2 + M_14_0 + M_1_4 + M_2_5
 + M_3_2 + M_4_0 + M_5_3 + M_6_1 + M_7_4 + M_8_2 + M_9_1 <= 14
EXCL_M_68: M_0_2 + M_10_1 + M_11_0 + M_12_0 + M_13_2 + M_14_5 + M_1_4 + M_2_0
 + M_3_4 + M_4_3 + M_5_3 + M_6_1 + M_7_4 + M_8_2 + M_9_1 <= 14
EXCL_M_69: M_0_4 + M_10_1 + M_11_0 + M_12_0 + M_13_2 + M_14_2 + M_1_4 + M_2_4
 + M_3_5 + M_4_0 + M_5_3 + M_6_1 + M_7_5 + M_8_2 + M_9_1 <= 14
EXCL_M_7: M_0_4 + M_10_1 + M_11_3 + M_12_2 + M_13_1 + M_14_0 + M_1_4 + M_2_0
 + M_3_5 + M_4_0 + M_5_2 + M_6_1 + M_7_4 + M_8_2 + M_9_5 <= 14
EXCL_M_70: M_0_4 + M_10_1 + M_11_0 + M_12_0 + M_13_2 + M_14_0 + M_1_4 + M_2_2
 + M_3_5 + M_4_3 + M_5_4 + M_6_1 + M_7_5 + M_8_2 + M_9_1 <= 14
EXCL_M_71: M_0_2 + M_10_1 + M_11_3 + M_12_0 + M_13_2 + M_14_4 + M_1_4 + M_2_0
 + M_3_5 + M_4_0 + M_5_4 + M_6_1 + M_7_1 + M_8_2 + M_9_5 <= 14
EXCL_M_72: M_0_4 + M_10_1 + M_11_3 + M_12_0 + M_13_2 + M_14_0 + M_1_4 + M_2_0
 + M_3_1 + M_4_3 + M_5_4 + M_6_1 + M_7_5 + M_8_2 + M_9_2 <= 14
EXCL_M_73: M_0_2 + M_10_1 + M_11_3 + M_12_0 + M_13_2 + M_14_0 + M_1_4 + M_2_1
 + M_3_4 + M_4_0 + M_5_4 + M_6_1 + M_7_5 + M_8_2 + M_9_5 <= 14
EXCL_M_74: M_0_4 + M_10_1 + M_11_0 + M_12_0 + M_13_2 + M_14_2 + M_1_4 + M_2_0
 + M_3_1 + M_4_3 + M_5_4 + M_6_1 + M_7_5 + M_8_2 + M_9_5 <= 14
EXCL_M_75: M_0_1 + M_10_1 + M_11_4 + M_12_0 + M_13_2 + M_14_0 + M_1_4 + M_2_2
 + M_3_5 + M_4_0 + M_5_4 + M_6_1 + M_7_5 + M_8_2 + M_9_5 <= 14
EXCL_M_76: M_0_4 + M_10_1 + M_11_0 + M_12_0 + M_13_2 + M_14_2 + M_1_4 + M_2_5
 + M_3_1 + M_4_0 + M_5_4 + M_6_1 + M_7_5 + M_8_2 + M_9_5 <= 14
EXCL_M_77: M_0_2 + M_10_1 + M_11_0 + M_12_0 + M_13_1 + M_14_0 + M_1_4 + M_2_4
 + M_3_5 + M_4_4 + M_5_2 + M_6_1 + M_7_5 + M_8_2 + M_9_5 <= 14
EXCL_M_78: M_0_4 + M_10_1 + M_11_3 + M_12_3 + M_13_2 + M_14_0 + M_1_4 + M_2_0
 + M_3_4 + M_4_0 + M_5_3 + M_6_1 + M_7_1 + M_8_2 + M_9_2 <= 14
EXCL_M_79: M_0_4 + M_10_1 + M_11_1 + M_12_0 + M_13_2 + M_14_4 + M_1_4 + M_2_2
 + M_3_5 + M_4_0 + M_5_0 + M_6_1 + M_7_5 + M_8_2 + M_9_5 <= 14
EXCL_M_8: M_0_4 + M_10_1 + M_11_0 + M_12_1 + M_13_2 + M_14_0 + M_1_4 + M_2_4
 + M_3_5 + M_4_2 + M_5_0 + M_6_1 + M_7_5 + M_8_2 + M_9_5 <= 14
EXCL_M_80: M_0_4 + M_10_1 + M_11_3 + M_12_0 + M_13_2 + M_14_0 + M_1_4 + M_2_4
 + M_3_5 + M_4_0 + M_5_1 + M_6_1 + M_7_5 + M_8_2 + M_9_2 <= 14
EXCL_M_81: M_0_2 + M_10_1 + M_11_4 + M_12_3 + M_13_2 + M_14_0 + M_1_4 + M_2_0
 + M_3_5 + M_4_0 + M_5_3 + M_6_1 + M_7_4 + M_8_1 + M_9_2 <= 14
EXCL_M_82: M_0_2 + M_10_1 + M_11_3 + M_12_4 + M_13_2 + M_14_0 + M_1_4 + M_2_0
 + M_3_5 + M_4_0 + M_5_3 + M_6_1 + M_7_4 + M_8_1 + M_9_2 <= 14
EXCL_M_83: M_0_2 + M_10_1 + M_11_0 + 1 M_12_4 + M_13_2 + M_14_0 + M_1_4
 + 1 M_2_0 + M_3_5 + M_4_3 - 2.77555756156e-15 M_4_5 + 1 M_5_3
 - 6.52256026967e-16 M_5_5 + M_6_1 + 1 M_7_4 + M_8_1 + M_9_2 <= 14
EXCL_M_84: M_0_2 + M_10_1 + M_11_4 + M_12_3 + M_13_2 + M_14_0 + M_1_4 + M_2_0
 + M_3_5 + M_4_0 + M_5_2 + M_6_1 + M_7_4 + M_8_1 + M_9_5 <= 14
EXCL_M_85: M_0_4 + M_10_1 + M_11_3 + M_12_3 + M_13_2 + M_14_0 + M_1_4 + M_2_0
 + M_3_5 + M_4_0 + M_5_2 + M_6_1 + M_7_4 + M_8_1 + M_9_2 <= 14
EXCL_M_86: M_0_4 + M_10_1 + M_11_4 + M_12_3 + M_13_2 + M_14_0 + M_1_4 + M_2_0
 + M_3_2 + M_4_0 + M_5_3 + M_6_1 + M_7_5 + M_8_1 + M_9_2 <= 14
EXCL_M_87: 6.66133814775e-16 M_0_2 + 1 M_0_4 + M_10_1
 - 4.16333634234e-16 M_11_0 + M_11_3 + 4.4408920985e-16 M_11_4 + 1 M_12_3
 + M_13_2 + M_14_0 + M_1_4 + 1 M_2_0 + 1 M_3_2 + 1.33226762955e-15 M_3_5
 + M_4_0 + M_5_3 + M_6_1 + M_7_4 + M_8_1 + 1 M_9_2 - 6.66133814775e-16 M_9_5
 <= 14
EXCL_M_88: M_0_2 + M_10_1 + M_11_3 + M_12_4 + M_13_2 + M_14_0 + M_1_4 + M_2_0
 + M_3_5 + M_4_0 + M_5_2 + M_6_1 + M_7_4 + M_8_1 + M_9_5 <= 14
EXCL_M_89: M_0_2 + M_10_1 + M_11_0 + M_12_4 + M_13_2 + M_14_0 + M_1_4 + M_2_0
 + M_3_5 + M_4_3 + M_5_2 + M_6_1 + M_7_4 + M_8_1 + M_9_5 <= 14
EXCL_M_9: M_0_2 + M_10_1 + M_11_0 + M_12_4 + M_13_2 + M_14_0 + M_1_4 + M_2_1
 + M_3_5 + M_4_4 + M_5_0 + M_6_1 + M_7_5 + M_8_2 + M_9_5 <= 14
EXCL_M_90: M_0_2 + M_10_1 + M_11_3 + M_12_3 + M_13_2 + M_14_0 + M_1_4 + M_2_0
 + M_3_4 + M_4_0 + M_5_3 + M_6_1 + M_7_4 + M_8_1 + M_9_2 <= 14
LESS_CAP_5_0: M_0_0 + M_10_0 + M_11_0 + M_12_0 + M_13_0 + M_14_0 + M_1_0
 + M_2_0 + M_3_0 + M_4_0 + M_5_0 + M_6_0 + M_7_0 + M_8_0 + M_9_0 <= 3
LESS_CAP_5_1: M_0_1 + M_10_1 + M_11_1 + M_12_1 + M_13_1 + M_14_1 + M_1_1
 + M_2_1 + M_3_1 + M_4_1 + M_5_1 + M_6_1 + M_7_1 + M_8_1 + M_9_1 <= 3
LESS_CAP_5_2: M_0_2 + M_10_2 + M_11_2 + M_12_2 + M_13_2 + M_14_2 + M_1_2
 + M_2_2 + M_3_2 + M_4_2 + M_5_2 + M_6_2 + M_7_2 + M_8_2 + M_9_2 <= 3
LESS_CAP_5_3: M_0_3 + M_10_3 + M_11_3 + M_12_3 + M_13_3 + M_14_3 + M_1_3
 + M_2_3 + M_3_3 + M_4_3 + M_5_3 + M_6_3 + M_7_3 + M_8_3 + M_9_3 <= 3
LESS_CAP_5_4: M_0_4 + M_10_4 + M_11_4 + M_12_4 + M_13_4 + M_14_4 + M_1_4
 + M_2_4 + M_3_4 + M_4_4 + M_5_4 + M_6_4 + M_7_4 + M_8_4 + M_9_4 <= 3
LESS_CAP_5_5: M_0_5 + M_10_5 + M_11_5 + M_12_5 + M_13_5 + M_14_5 + M_1_5
 + M_2_5 + M_3_5 + M_4_5 + M_5_5 + M_6_5 + M_7_5 + M_8_5 + M_9_5 <= 3
LESS_ONE_5_0: M_0_0 + M_0_1 + M_0_2 + M_0_3 + M_0_4 + M_0_5 <= 1
LESS_ONE_5_1: M_1_0 + M_1_1 + M_1_2 + M_1_3 + M_1_4 + M_1_5 <= 1
LESS_ONE_5_10: M_10_0 + M_10_1 + M_10_2 + M_10_3 + M_10_4 + M_10_5 <= 1
LESS_ONE_5_11: M_11_0 + M_11_1 + M_11_2 + M_11_3 + M_11_4 + M_11_5 <= 1
LESS_ONE_5_12: M_12_0 + M_12_1 + M_12_2 + M_12_3 + M_12_4 + M_12_5 <= 1
LESS_ONE_5_13: M_13_0 + M_13_1 + M_13_2 + M_13_3 + M_13_4 + M_13_5 <= 1
LESS_ONE_5_14: M_14_0 + M_14_1 + M_14_2 + M_14_3 + M_14_4 + M_14_5 <= 1
LESS_ONE_5_2: M_2_0 + M_2_1 + M_2_2 + M_2_3 + M_2_4 + M_2_5 <= 1
LESS_ONE_5_3: M_3_0 + M_3_1 + M_3_2 + M_3_3 + M_3_4 + M_3_5 <= 1
LESS_ONE_5_4: M_4_0 + M_4_1 + M_4_2 + M_4_3 + M_4_4 + M_4_5 <= 1
LESS_ONE_5_5: M_5_0 + M_5_1 + M_5_2 + M_5_3 + M_5_4 + M_5_5 <= 1
LESS_ONE_5_6: M_6_0 + M_6_1 + M_6_2 + M_6_3 + M_6_4 + M_6_5 <= 1
LESS_ONE_5_7: M_7_0 + M_7_1 + M_7_2 + M_7_3 + M_7_4 + M_7_5 <= 1
LESS_ONE_5_8: M_8_0 + M_8_1 + M_8_2 + M_8_3 + M_8_4 + M_8_5 <= 1
LESS_ONE_5_9: M_9_0 + M_9_1 + M_9_2 + M_9_3 + M_9_4 + M_9_5 <= 1
PricingObjConstr: - 1.33333333333 M_0_0 - 1.4 M_0_1 - M_0_2
 - 0.733333333333 M_0_3 - 0.666666666674 M_0_4 - 0.4 M_0_5 - 1.4 M_10_0
 - 1.33333333333 M_10_1 - 0.733333333333 M_10_2 - 0.4 M_10_3 - 1.2 M_10_4
 - M_10_5 + 465517.57931 M_11_0 - 1.00000000008 M_11_1 - 0.4 M_11_2 - M_11_3
 + 310346.652874 M_11_4 - 0.733333333333 M_11_5 - 1.4 M_12_0
 + 387931.482759 M_12_1 - M_12_2 - 0.733333333333 M_12_3
 + 310346.386207 M_12_4 - 0.4 M_12_5 - 1.33333333333 M_13_0
 - 0.200000000279 M_13_1 - 1.2 M_13_2 - 0.4 M_13_3 - M_13_4
 - 0.733333333333 M_13_5 + 465518.37931 M_14_0 - 1.2 M_14_1
 + 232759.289655 M_14_2 - 0.4 M_14_3 - 1 M_14_4 - 0.733333333333 M_14_5
 - 1.2 M_1_0 - 1.33333333333 M_1_1 - M_1_2 - 0.4 M_1_3 - 1.4 M_1_4
 - 0.733333333333 M_1_5 + 465517.97931 M_2_0 - 1.33333333333 M_2_1 - M_2_2
 - 0.4 M_2_3 + 310346.386207 M_2_4 - 0.733333333333 M_2_5
 - 1.33333333333 M_3_0 - 1.4 M_3_1 + 232759.289655 M_3_2 - 0.4 M_3_3
 - 0.666666666616 M_3_4 - 0.733333333333 M_3_5 + 465518.37931 M_4_0
 - 1.2 M_4_1 + 232759.289655 M_4_2 - 0.733333333333 M_4_3
 - 0.999999999932 M_4_4 - 0.4 M_4_5 - 1.33333333333 M_5_0 - 1.2 M_5_1
 + 232759.289655 M_5_2 - 0.733333333333 M_5_3 - 1.4 M_5_4 - 0.4 M_5_5
 - 1.33333333333 M_6_0 - 1.4 M_6_1 - 0.733333333333 M_6_2 - 0.4 M_6_3
 - 1.2 M_6_4 - M_6_5 - 1.33333333333 M_7_0 - 1.4 M_7_1 - 0.733333333333 M_7_2
 - 0.4 M_7_3 + 310346.652874 M_7_4 - M_7_5 - M_8_0 + 465520.77931 M_8_1
 - 1.33333333333 M_8_2 - 0.733333333333 M_8_3 - 1.2 M_8_4 - 0.4 M_8_5
 - 1.33333333333 M_9_0 - 0.200000000279 M_9_1 + 310345.852874 M_9_2
 - 0.4 M_9_3 - 0.733333333333 M_9_4 - M_9_5 >= 698278.735632
Bounds
 __dummy = 0
 t_0 free
 t_1 free
 t_2 free
 t_3 free
 t_4 free
 t_5 free
Binaries
M_0_0
M_0_1
M_0_2
M_0_3
M_0_4
M_0_5
M_10_0
M_10_1
M_10_2
M_10_3
M_10_4
M_10_5
M_11_0
M_11_1
M_11_2
M_11_3
M_11_4
M_11_5
M_12_0
M_12_1
M_12_2
M_12_3
M_12_4
M_12_5
M_13_0
M_13_1
M_13_2
M_13_3
M_13_4
M_13_5
M_14_0
M_14_1
M_14_2
M_14_3
M_14_4
M_14_5
M_1_0
M_1_1
M_1_2
M_1_3
M_1_4
M_1_5
M_2_0
M_2_1
M_2_2
M_2_3
M_2_4
M_2_5
M_3_0
M_3_1
M_3_2
M_3_3
M_3_4
M_3_5
M_4_0
M_4_1
M_4_2
M_4_3
M_4_4
M_4_5
M_5_0
M_5_1
M_5_2
M_5_3
M_5_4
M_5_5
M_6_0
M_6_1
M_6_2
M_6_3
M_6_4
M_6_5
M_7_0
M_7_1
M_7_2
M_7_3
M_7_4
M_7_5
M_8_0
M_8_1
M_8_2
M_8_3
M_8_4
M_8_5
M_9_0
M_9_1
M_9_2
M_9_3
M_9_4
M_9_5
f_0
f_1
f_2
f_3
f_4
f_5
End
